% File represents an instance of a Composite Structure problem to be solved by a CP framework
% Created on 2025-03-26 10:41:21.548
T = 52;
n = 16;
m = 24;
edges = [(2, 1),
(6, 5),
(9, 10),
(13, 14),
(2, 3),
(6, 7),
(11, 10),
(15, 14),
(4, 3),
(7, 8),
(11, 12),
(15, 16),
(1, 5),
(9, 5),
(13, 9),
(2, 6),
(6, 10),
(14, 10),
(7, 3),
(11, 7),
(15, 11),
(4, 8),
(12, 8),
(16, 12)];
counts = [|8, 10, 8, 20,
|8, 12, 8, 22,
|8, 10, 8, 18,
|8, 10, 8, 20,
|8, 10, 8, 18,
|8, 10, 8, 22,
|8, 10, 8, 20,
|8, 10, 8, 14,
|8, 12, 8, 18,
|8, 10, 8, 16,
|8, 12, 8, 20,
|8, 12, 8, 14,
|10, 14, 10, 18,
|8, 12, 8, 18,
|8, 12, 8, 22,
|8, 12, 8, 16|];
